CapLotSizing_PM/src/Instancias/NCLSHT/6i6p6m/NBA02.OUT
 CG ITER, OVMR, OVMRUB =           1   12772.2802734    7490.1997070
 CG ITER, OVMR, OVMRUB =           2    7490.2006836    7490.1997070
 CG ITER, OVMR, OVMRUB =           3    7490.2011719    7490.1997070
 CG ITER, OVMR, OVMRUB =           4    7490.2011719    7490.1997070
 CG ITER, OVMR, OVMRUB =           5    7490.2011719    7490.1997070
 CG ITER, OVMR, OVMRUB =           6    7490.2011719    7490.1997070
 CG ITER, OVMR, OVMRUB =           7    7490.2011719    7490.1997070
 CG ITER, OVMR, OVMRUB =           8    7490.2011719    7490.1997070
 CG ITER, OVMR, OVMRUB =           9    7490.2011719    7490.1997070
 CG ITER, OVMR, OVMRUB =          10    7490.2011719    7490.1997070
OVLB =    7490.2011719 OVLUB =    7490.1997070 TIME =       0.7600000
